c Este es el tablero 0 en CNF
p cnf 1 1
1 0

c Este es el tablero 1 en CNF
p cnf 1 1
1 0 



c Este es el tablero 2 en CNF
p cnf 64 64
1 0 6 0 11 0 16 0 19 0 24 0 30 0 36 0 37 0 42 0 50 0 55 0 60 0 61 0
25 26 27 28 0 
45 46 47 48 0 
-25 -17 0 -25 -21 0 -25 -29 0 -26 -18 0 -26 -22 0 -26 -30 0 -27 -19 0 -27 -23 0 -27 -31 0 -28 -20 0 -28 -24 0 -28 -32 0 
-45 -33 0 -45 -37 0 -45 -41 0 -46 -34 0 -46 -38 0 -46 -42 0 -47 -35 0 -47 -39 0 -47 -43 0 -48 -36 0 -48 -40 0 -48 -44 0 
-25 -9 0 -25 -41 0 -25 -57 0 -26 -10 0 -26 -42 0 -26 -58 0 -27 -11 0 -27 -43 0 -27 -59 0 -28 -12 0 -28 -44 0 -28 -60 0 
-45 -13 0 -45 -29 0 -45 -61 0 -46 -14 0 -46 -30 0 -46 -62 0 -47 -15 0 -47 -31 0 -47 -63 0 -48 -16 0 -48 -32 0 -48 -64 0 

